c this file is generated automatically by dimacs_tools software
c 
c graph contains 131 nodes and 384 arcs
p sp 131 384
c 
a 1 2 751.0
a 1 3 2690.0
a 1 4 2782.0
a 1 5 873.0
a 2 6 1275.0
a 2 7 1426.0
a 2 1 751.0
a 2 8 1188.0
a 3 9 878.0
a 3 10 738.0
a 3 1 2690.0
a 3 11 1763.0
a 4 7 1375.0
a 4 12 552.0
a 4 13 1594.0
a 4 14 738.0
a 4 1 2782.0
a 5 10 2737.0
a 5 1 873.0
a 5 14 2738.0
a 5 15 677.0
a 6 16 2149.0
a 6 2 1275.0
a 6 17 1577.0
a 7 2 1426.0
a 7 17 1555.0
a 7 4 1375.0
a 8 18 3088.0
a 8 19 1664.0
a 8 2 1188.0
a 9 19 537.0
a 9 3 878.0
a 9 20 1902.0
a 10 3 738.0
a 10 21 807.0
a 10 5 2737.0
a 10 22 1673.0
a 11 3 1763.0
a 12 23 738.0
a 12 24 1533.0
a 12 4 552.0
a 13 24 878.0
a 13 4 1594.0
a 13 25 1120.0
a 14 4 738.0
a 14 26 2653.0
a 14 27 738.0
a 14 5 2738.0
a 15 21 2690.0
a 15 5 677.0
a 15 27 2829.0
a 15 28 738.0
a 16 29 788.0
a 16 6 2149.0
a 16 18 1115.0
a 17 30 2147.0
a 17 6 1577.0
a 17 31 1255.0
a 17 7 1555.0
a 18 32 1577.0
a 18 16 1115.0
a 18 8 3088.0
a 19 33 1141.0
a 19 34 1426.0
a 19 8 1664.0
a 19 9 537.0
a 20 9 1902.0
a 21 10 807.0
a 21 35 738.0
a 21 15 2690.0
a 21 36 1534.0
a 22 37 928.0
a 22 10 1673.0
a 23 31 807.0
a 23 38 1586.0
a 23 12 738.0
a 24 38 807.0
a 24 39 1221.0
a 24 13 878.0
a 24 12 1533.0
a 25 39 828.0
a 25 40 1534.0
a 25 26 605.0
a 25 13 1120.0
a 26 25 605.0
a 26 41 1493.0
a 26 42 828.0
a 26 14 2653.0
a 27 14 738.0
a 27 42 2477.0
a 27 43 807.0
a 27 15 2829.0
a 28 35 2690.0
a 28 15 738.0
a 28 43 2782.0
a 28 44 878.0
a 29 45 605.0
a 29 30 650.0
a 29 16 788.0
a 30 46 1345.0
a 30 17 2147.0
a 30 29 650.0
a 31 47 1275.0
a 31 48 1255.0
a 31 23 807.0
a 31 17 1255.0
a 32 49 807.0
a 32 50 1533.0
a 32 51 807.0
a 32 18 1577.0
a 33 51 807.0
a 33 19 1141.0
a 33 52 1438.0
a 34 52 873.0
a 34 19 1426.0
a 34 53 713.0
a 35 21 738.0
a 35 54 1485.0
a 35 55 879.0
a 35 28 2690.0
a 36 21 1534.0
a 36 56 927.0
a 37 57 807.0
a 37 22 928.0
a 37 56 810.0
a 37 58 1673.0
a 38 59 630.0
a 38 23 1586.0
a 38 60 1258.0
a 38 24 807.0
a 39 60 878.0
a 39 24 1221.0
a 39 61 1534.0
a 39 25 828.0
a 40 61 828.0
a 40 25 1534.0
a 40 62 1021.0
a 40 41 676.0
a 41 40 676.0
a 41 63 1022.0
a 41 26 1493.0
a 42 26 828.0
a 42 64 609.0
a 42 27 2477.0
a 43 27 807.0
a 43 65 2987.0
a 43 66 807.0
a 43 28 2782.0
a 44 55 2690.0
a 44 28 878.0
a 44 66 2829.0
a 44 67 810.0
a 45 68 418.0
a 45 29 605.0
a 45 69 610.0
a 46 30 1345.0
a 46 70 788.0
a 46 47 807.0
a 47 46 807.0
a 47 71 1345.0
a 47 31 1275.0
a 48 72 878.0
a 48 59 475.0
a 48 31 1255.0
a 49 73 3860.0
a 49 74 474.0
a 49 75 3624.0
a 49 32 807.0
a 50 32 1533.0
a 50 76 673.0
a 50 77 884.0
a 51 32 807.0
a 51 33 807.0
a 51 76 1438.0
a 52 76 807.0
a 52 33 1438.0
a 52 34 873.0
a 53 78 610.0
a 53 34 713.0
a 54 35 1485.0
a 54 79 976.0
a 55 35 879.0
a 55 44 2690.0
a 55 80 807.0
a 55 81 1345.0
a 56 37 810.0
a 56 36 927.0
a 56 79 738.0
a 56 82 1673.0
a 57 83 738.0
a 57 37 807.0
a 57 84 1673.0
a 58 84 807.0
a 58 37 1673.0
a 58 82 810.0
a 58 85 2320.0
a 59 48 475.0
a 59 86 1206.0
a 59 38 630.0
a 60 86 751.0
a 60 87 1458.0
a 60 39 878.0
a 60 38 1258.0
a 61 87 738.0
a 61 88 1493.0
a 61 40 828.0
a 61 39 1534.0
a 62 89 581.0
a 62 63 677.0
a 62 40 1021.0
a 63 62 677.0
a 63 41 1022.0
a 63 90 2988.0
a 63 91 939.0
a 64 65 751.0
a 64 91 2104.0
a 64 42 609.0
a 65 64 751.0
a 65 92 878.0
a 65 43 2987.0
a 66 43 807.0
a 66 92 2950.0
a 66 93 807.0
a 66 44 2829.0
a 67 44 810.0
a 67 93 2690.0
a 67 94 879.0
a 67 80 2829.0
a 68 45 418.0
a 69 45 610.0
a 70 95 1080.0
a 70 96 610.0
a 70 46 788.0
a 71 96 677.0
a 71 72 336.0
a 71 47 1345.0
a 72 71 336.0
a 72 97 1631.0
a 72 48 878.0
a 73 49 3860.0
a 73 98 751.0
a 73 99 1891.0
a 73 75 476.0
a 74 100 2509.0
a 74 101 610.0
a 74 49 474.0
a 75 73 476.0
a 75 102 336.0
a 75 49 3624.0
a 76 50 673.0
a 76 51 1438.0
a 76 52 807.0
a 77 103 1206.0
a 77 50 884.0
a 78 104 924.0
a 78 53 610.0
a 78 83 1275.0
a 79 56 738.0
a 79 105 1763.0
a 79 54 976.0
a 80 55 807.0
a 80 106 1206.0
a 80 67 2829.0
a 80 107 873.0
a 81 108 1115.0
a 81 55 1345.0
a 82 58 810.0
a 82 56 1673.0
a 82 105 677.0
a 82 109 2459.0
a 83 78 1275.0
a 83 110 884.0
a 83 57 738.0
a 84 111 807.0
a 84 57 1673.0
a 84 58 807.0
a 84 112 1716.0
a 85 113 810.0
a 85 114 1394.0
a 85 58 2320.0
a 85 109 807.0
a 86 97 807.0
a 86 59 1206.0
a 86 115 1494.0
a 86 60 751.0
a 87 115 828.0
a 87 60 1458.0
a 87 116 1631.0
a 87 61 738.0
a 88 116 751.0
a 88 61 1493.0
a 88 117 2516.0
a 88 89 878.0
a 89 62 581.0
a 89 88 878.0
a 89 118 2418.0
a 90 118 677.0
a 90 119 905.0
a 90 120 1458.0
a 90 63 2988.0
a 91 64 2104.0
a 91 63 939.0
a 91 119 2752.0
a 91 121 871.0
a 92 65 878.0
a 92 122 738.0
a 92 66 2950.0
a 93 66 807.0
a 93 122 2987.0
a 93 123 806.0
a 93 67 2690.0
a 94 67 879.0
a 94 123 2738.0
a 94 124 738.0
a 94 125 836.0
a 95 126 1100.0
a 95 127 1066.0
a 95 70 1080.0
a 96 70 610.0
a 96 128 511.0
a 96 71 677.0
a 97 129 1594.0
a 97 86 807.0
a 97 72 1631.0
a 98 130 3461.0
a 98 73 751.0
a 98 99 1664.0
a 99 131 3676.0
a 99 98 1664.0
a 99 73 1891.0
a 100 74 2509.0
a 101 74 610.0
a 102 75 336.0
a 103 77 1206.0
a 104 78 924.0
a 104 110 1476.0
a 105 82 677.0
a 105 79 1763.0
a 106 80 1206.0
a 107 80 873.0
a 108 81 1115.0
a 109 85 807.0
a 109 82 2459.0
a 110 104 1476.0
a 110 83 884.0
a 110 111 751.0
a 111 110 751.0
a 111 84 807.0
a 112 113 751.0
a 112 84 1716.0
a 113 112 751.0
a 113 85 810.0
a 114 85 1394.0
a 115 129 751.0
a 115 87 828.0
a 115 86 1494.0
a 116 88 751.0
a 116 87 1631.0
a 117 118 828.0
a 117 88 2516.0
a 118 117 828.0
a 118 90 677.0
a 118 89 2418.0
a 119 90 905.0
a 119 91 2752.0
a 120 90 1458.0
a 121 91 871.0
a 122 92 738.0
a 122 93 2987.0
a 123 93 806.0
a 123 94 2738.0
a 124 94 738.0
a 125 94 836.0
a 126 130 552.0
a 126 95 1100.0
a 127 128 1210.0
a 127 95 1066.0
a 128 127 1210.0
a 128 96 511.0
a 129 97 1594.0
a 129 115 751.0
a 130 126 552.0
a 130 98 3461.0
a 131 99 3676.0
